; benchmark generated from python API
(set-info :status unknown)
(declare-fun x_month () Int)
(declare-fun x_day () Int)
(declare-fun x_year () Int)
(assert
 (>= x_month 1))
(assert
 (<= x_month 12))
(assert
 (>= x_day 1))
(assert
 (<= x_day 31))
(assert
 (let (($x349 (<= x_day 28)))
 (let (($x1528 (<= x_day 29)))
 (let (($x424 (= (mod x_year 400) 0)))
 (let (($x1177 (= (mod x_year 4) 0)))
 (let (($x1580 (ite (or (and $x1177 (and (distinct (mod x_year 100) 0) true)) $x424) $x1528 $x349)))
 (let (($x1496 (= x_month 2)))
 (ite $x1496 $x1580 true))))))))
(assert
 (let (($x882 (<= x_day 30)))
 (let (($x853 (or (= x_month 4) (= x_month 6) (= x_month 9) (= x_month 11))))
 (ite $x853 $x882 true))))
(assert
 (let (($x1521 (= x_year 2023)))
 (let (($x1105 (and $x1521 (or (> x_month 1) (and (= x_month 1) (>= x_day 1))))))
 (or (> x_year 2023) $x1105))))
(assert
 (let (($x1521 (= x_year 2023)))
 (let (($x1610 (and $x1521 (or (< x_month 1) (and (= x_month 1) (<= x_day 31))))))
 (or (< x_year 2023) $x1610))))
(assert
 (let ((?x1303 (+ (mod (- (+ x_month (+ (* 0 12) 0)) 1) 12) 1)))
 (let ((?x1417 (ite (or (= ?x1303 4) (= ?x1303 6) (= ?x1303 9) (= ?x1303 11)) 30 31)))
 (let ((?x1271 (+ 0 (div (- (+ x_month (+ (* 0 12) 0)) 1) 12))))
 (let ((?x1010 (+ x_year ?x1271)))
 (let (($x988 (or (and (= (mod ?x1010 4) 0) (and (distinct (mod ?x1010 100) 0) true)) (= (mod ?x1010 400) 0))))
 (let ((?x740 (ite (= ?x1303 2) (ite $x988 29 28) ?x1417)))
 (let (($x889 (< x_day 1)))
 (let ((?x1232 (ite $x889 1 (ite (> x_day ?x740) ?x740 x_day))))
 (let ((?x262 (ite (< ?x1232 1) 1 (ite (> ?x1232 ?x740) ?x740 ?x1232))))
 (let ((?x1110 (ite (= 2 ?x1303) (ite $x988 31 31) (ite (= 1 ?x1303) (ite $x988 0 0) 0))))
 (let ((?x1073 (ite (= 4 ?x1303) (ite $x988 91 90) (ite (= 3 ?x1303) (ite $x988 60 59) ?x1110))))
 (let ((?x901 (ite (= 6 ?x1303) (ite $x988 152 151) (ite (= 5 ?x1303) (ite $x988 121 120) ?x1073))))
 (let ((?x207 (ite (= 8 ?x1303) (ite $x988 213 212) (ite (= 7 ?x1303) (ite $x988 182 181) ?x901))))
 (let ((?x765 (ite (= 10 ?x1303) (ite $x988 274 273) (ite (= 9 ?x1303) (ite $x988 244 243) ?x207))))
 (let ((?x1063 (ite (= 12 ?x1303) (ite $x988 335 334) (ite (= 11 ?x1303) (ite $x988 305 304) ?x765))))
 (let ((?x1061 (- (+ (* 365 (- ?x1010 1)) (div (- ?x1010 1) 4)) (div (- ?x1010 1) 100))))
 (let ((?x826 (- (+ (+ (+ ?x1061 (div (- ?x1010 1) 400)) ?x1063) (- ?x262 1)) 730179)))
 (let ((?x1106 (+ (+ ?x826 30) 730179)))
 (let ((?x1099 (mod ?x1106 146097)))
 (let ((?x1318 (div ?x1099 36524)))
 (let ((?x1549 (ite (<= 4 ?x1318) 3 ?x1318)))
 (let ((?x1406 (- ?x1099 (* ?x1549 36524))))
 (let ((?x1524 (mod ?x1406 1461)))
 (let ((?x1498 (div ?x1524 365)))
 (let ((?x1173 (ite (<= 4 ?x1498) 3 ?x1498)))
 (let ((?x467 (+ (+ (* (div ?x1106 146097) 400) (* ?x1549 100)) (* (div ?x1406 1461) 4))))
 (let ((?x1198 (+ (+ ?x467 ?x1173) 1)))
 (let (($x1171 (or (and (= (mod ?x1198 4) 0) (and (distinct (mod ?x1198 100) 0) true)) (= (mod ?x1198 400) 0))))
 (let ((?x513 (- ?x1524 (* ?x1173 365))))
 (let ((?x1170 (ite $x1171 31 31)))
 (let (($x1504 (>= ?x513 ?x1170)))
 (let ((?x471 (ite $x1504 (+ (- ?x513 ?x1170) 1) (+ (- ?x513 (ite $x1171 0 0)) 1))))
 (let ((?x451 (ite $x1171 60 59)))
 (let (($x218 (>= ?x513 ?x451)))
 (let ((?x453 (ite $x1171 91 90)))
 (let (($x308 (>= ?x513 ?x453)))
 (let ((?x791 (ite $x308 (+ (- ?x513 ?x453) 1) (ite $x218 (+ (- ?x513 ?x451) 1) ?x471))))
 (let ((?x1607 (ite $x1171 121 120)))
 (let (($x1025 (>= ?x513 ?x1607)))
 (let ((?x445 (ite $x1171 152 151)))
 (let (($x1438 (>= ?x513 ?x445)))
 (let ((?x1017 (ite $x1438 (+ (- ?x513 ?x445) 1) (ite $x1025 (+ (- ?x513 ?x1607) 1) ?x791))))
 (let ((?x921 (ite $x1171 182 181)))
 (let (($x302 (>= ?x513 ?x921)))
 (let ((?x686 (ite $x1171 213 212)))
 (let (($x664 (>= ?x513 ?x686)))
 (let ((?x1484 (ite $x664 (+ (- ?x513 ?x686) 1) (ite $x302 (+ (- ?x513 ?x921) 1) ?x1017))))
 (let ((?x706 (ite $x1171 244 243)))
 (let (($x216 (>= ?x513 ?x706)))
 (let ((?x1451 (ite $x1171 274 273)))
 (let (($x687 (>= ?x513 ?x1451)))
 (let ((?x1650 (ite $x687 (+ (- ?x513 ?x1451) 1) (ite $x216 (+ (- ?x513 ?x706) 1) ?x1484))))
 (let ((?x1503 (ite $x1171 305 304)))
 (let (($x902 (>= ?x513 ?x1503)))
 (let ((?x527 (ite $x1171 335 334)))
 (let (($x306 (>= ?x513 ?x527)))
 (let ((?x1138 (ite $x306 (+ (- ?x513 ?x527) 1) (ite $x902 (+ (- ?x513 ?x1503) 1) ?x1650))))
 (let (($x489 (= 0 30)))
 (let ((?x1546 (+ (mod (- (+ x_month (+ (* 0 12) 1)) 1) 12) 1)))
 (let ((?x1532 (ite (or (= ?x1546 4) (= ?x1546 6) (= ?x1546 9) (= ?x1546 11)) 30 31)))
 (let ((?x1534 (+ 0 (div (- (+ x_month (+ (* 0 12) 1)) 1) 12))))
 (let ((?x984 (+ x_year ?x1534)))
 (let (($x484 (or (and (= (mod ?x984 4) 0) (and (distinct (mod ?x984 100) 0) true)) (= (mod ?x984 400) 0))))
 (let ((?x241 (ite (= ?x1546 2) (ite $x484 29 28) ?x1532)))
 (let ((?x1554 (ite $x889 1 (ite (> x_day ?x241) ?x241 x_day))))
 (let ((?x314 (ite (< ?x1554 1) 1 (ite (> ?x1554 ?x241) ?x241 ?x1554))))
 (let ((?x723 (ite (= 2 ?x1546) (ite $x484 31 31) (ite (= 1 ?x1546) (ite $x484 0 0) 0))))
 (let ((?x1021 (ite (= 4 ?x1546) (ite $x484 91 90) (ite (= 3 ?x1546) (ite $x484 60 59) ?x723))))
 (let ((?x1008 (ite (= 6 ?x1546) (ite $x484 152 151) (ite (= 5 ?x1546) (ite $x484 121 120) ?x1021))))
 (let ((?x1280 (ite (= 8 ?x1546) (ite $x484 213 212) (ite (= 7 ?x1546) (ite $x484 182 181) ?x1008))))
 (let ((?x772 (ite (= 10 ?x1546) (ite $x484 274 273) (ite (= 9 ?x1546) (ite $x484 244 243) ?x1280))))
 (let ((?x1477 (ite (= 12 ?x1546) (ite $x484 335 334) (ite (= 11 ?x1546) (ite $x484 305 304) ?x772))))
 (let ((?x893 (- (+ (* 365 (- ?x984 1)) (div (- ?x984 1) 4)) (div (- ?x984 1) 100))))
 (let ((?x891 (- (+ (+ (+ ?x893 (div (- ?x984 1) 400)) ?x1477) (- ?x314 1)) 730179)))
 (let ((?x903 (+ (+ ?x891 0) 730179)))
 (let ((?x1574 (mod ?x903 146097)))
 (let ((?x289 (div ?x1574 36524)))
 (let ((?x550 (ite (<= 4 ?x289) 3 ?x289)))
 (let ((?x1103 (- ?x1574 (* ?x550 36524))))
 (let ((?x509 (mod ?x1103 1461)))
 (let ((?x1092 (div ?x509 365)))
 (let ((?x1168 (ite (<= 4 ?x1092) 3 ?x1092)))
 (let ((?x977 (+ (+ (* (div ?x903 146097) 400) (* ?x550 100)) (* (div ?x1103 1461) 4))))
 (let ((?x540 (+ (+ ?x977 ?x1168) 1)))
 (let (($x1109 (or (and (= (mod ?x540 4) 0) (and (distinct (mod ?x540 100) 0) true)) (= (mod ?x540 400) 0))))
 (let ((?x1160 (- ?x509 (* ?x1168 365))))
 (let ((?x324 (ite $x1109 31 31)))
 (let (($x989 (>= ?x1160 ?x324)))
 (let ((?x1486 (ite $x989 (+ (- ?x1160 ?x324) 1) (+ (- ?x1160 (ite $x1109 0 0)) 1))))
 (let ((?x1114 (ite $x1109 60 59)))
 (let (($x1074 (>= ?x1160 ?x1114)))
 (let ((?x819 (ite $x1109 91 90)))
 (let (($x1567 (>= ?x1160 ?x819)))
 (let ((?x1482 (ite $x1567 (+ (- ?x1160 ?x819) 1) (ite $x1074 (+ (- ?x1160 ?x1114) 1) ?x1486))))
 (let ((?x755 (ite $x1109 121 120)))
 (let (($x1600 (>= ?x1160 ?x755)))
 (let ((?x763 (ite $x1109 152 151)))
 (let (($x1474 (>= ?x1160 ?x763)))
 (let ((?x1542 (ite $x1474 (+ (- ?x1160 ?x763) 1) (ite $x1600 (+ (- ?x1160 ?x755) 1) ?x1482))))
 (let ((?x982 (ite $x1109 182 181)))
 (let (($x1124 (>= ?x1160 ?x982)))
 (let ((?x497 (ite $x1109 213 212)))
 (let (($x1603 (>= ?x1160 ?x497)))
 (let ((?x736 (ite $x1603 (+ (- ?x1160 ?x497) 1) (ite $x1124 (+ (- ?x1160 ?x982) 1) ?x1542))))
 (let ((?x252 (ite $x1109 244 243)))
 (let (($x1111 (>= ?x1160 ?x252)))
 (let ((?x738 (ite $x1109 274 273)))
 (let (($x1520 (>= ?x1160 ?x738)))
 (let ((?x716 (ite $x1520 (+ (- ?x1160 ?x738) 1) (ite $x1111 (+ (- ?x1160 ?x252) 1) ?x736))))
 (let ((?x974 (ite $x1109 305 304)))
 (let (($x264 (>= ?x1160 ?x974)))
 (let ((?x976 (ite $x1109 335 334)))
 (let (($x531 (>= ?x1160 ?x976)))
 (let ((?x1100 (ite $x531 (+ (- ?x1160 ?x976) 1) (ite $x264 (+ (- ?x1160 ?x974) 1) ?x716))))
 (let (($x735 (= 0 0)))
 (let ((?x481 (ite $x1025 5 (ite $x308 4 (ite $x218 3 (ite $x1504 2 1))))))
 (let ((?x780 (ite $x216 9 (ite $x664 8 (ite $x302 7 (ite $x1438 6 ?x481))))))
 (let ((?x1049 (ite $x306 12 (ite $x902 11 (ite $x687 10 ?x780)))))
 (let ((?x1476 (ite $x1600 5 (ite $x1567 4 (ite $x1074 3 (ite $x989 2 1))))))
 (let ((?x1493 (ite $x1111 9 (ite $x1603 8 (ite $x1124 7 (ite $x1474 6 ?x1476))))))
 (let (($x1022 (= (ite $x735 ?x1546 (ite $x531 12 (ite $x264 11 (ite $x1520 10 ?x1493)))) (ite $x489 ?x1303 ?x1049))))
 (let (($x1178 (and (= (ite $x735 ?x984 ?x540) (ite $x489 ?x1010 ?x1198)) $x1022 (= (ite $x735 ?x314 ?x1100) (ite $x489 ?x262 ?x1138)))))
 (not $x1178))))))))))))))))))))))))))))))))))))))))))))))))))))))))))))))))))))))))))))))))))))))))))))))))))))))))))))))))))))))))))))
(assert
 (let (($x626 (= x_day 31)))
(let (($x1001 (= x_month 1)))
(let (($x1521 (= x_year 2023)))
(and $x1521 $x1001 $x626)))))
(check-sat)
